#######################################
### Exact MIP solver for the HHCRSP ###
#######################################
-- Instance file: new-instances/HHCRSP_100_20_72_1.6_C_C.txt
-- Max threads: 4
-- Time limit: 999999 seconds
-- Use initial solution: No
Trivial flow violations prevented generating 48078 variables.
Model exported.
Version identifier: 20.1.0.0 | 2020-11-10 | 9bedb6d68
CPXPARAM_Threads                                 4
CPXPARAM_TimeLimit                               999999
Parallel mode: deterministic, using up to 4 threads for concurrent optimization:
 * Starting dual Simplex on 1 thread...
 * Starting Barrier on 3 threads...
Tried aggregator 1 time.
LP Presolve eliminated 5532 rows and 1360 columns.
Reduced LP has 51360 rows, 49099 columns, and 599160 nonzeros.
Presolve time = 0.34 sec. (155.17 ticks)
Symmetry aggregator did 53480 additional substitutions.
Initializing dual steep norms . . .

Iteration log . . .
Iteration:     1   Dual objective     =             0.333333
Iteration:   473   Dual objective     =           112.333333

Dual crossover.
  Dual:  Fixing 246 variables.
      245 DMoves:  Infeasibility  6.46733753e-14  Objective  1.12666667e+02
        0 DMoves:  Infeasibility  6.61511429e-14  Objective  1.12666667e+02
  Dual:  Pushed 3, exchanged 243.
  Primal:  Fixing 103 variables.
      102 PMoves:  Infeasibility  7.21644966e-16  Objective  1.12666667e+02
        0 PMoves:  Infeasibility  9.43689571e-16  Objective  1.12666667e+02
  Primal:  Pushed 58, exchanged 45.

Dual simplex solved model.


Solution status from MIP model:
-- Processing time: 0.55 sec.
-- Memory used: 119.273 MB
-- Best bound: inf
-- Obj value: 112.667
-- Gap: inf%
-- Total distance: 338
-- Total tardiness: 0
-- Largest tardiness: 0
